Maximize
  1478.43778781891 C0(7) + 2815.56188222249 C1(13) + 3349.48454032186 C2(13)
   - 120.2745870439 C3(1) + 2836.65392103875 C4(13)
   + 955.6255288482299 C5(6) + 1039.58408763971 C6(6)
   + 949.624221596973 C7(7) + 1797.78612185517 C8(10)
   + 1178.0187392124 C9(8) + 1882.43576902386 C10(10)
   + 156.2467753327 C11(4) + 1005.191071837003 C12(5)
   + 351.6718326092 C13(5) + 1830.96954675555 C14(12)
   + 892.8165377568703 C15(10) + 1065.9949297417 C16(6)
   + 1682.31737906512 C17(9) + 401.5503135382301 C18(6)
   + 2082.78973584894 C19(10) + 525.544309561393 C20(6)
   + 717.9517451893799 C21(6) + 651.0541162596701 C22(7)
   + 1131.795486684243 C23(7) + 1377.83540719609 C24(10)
   + 1651.783004547423 C25(8) + 665.5862021530701 C26(6)
   + 377.8065722810801 C27(8) + 1186.52593197567 C28(8)
   + 898.9250652878001 C29(4) + 1191.086922472763 C30(9)
   + 575.0264292423701 C31(7) + 220.6901762949 C32(4)
   + 1277.366696171603 C33(11) + 1679.379979735263 C34(8)
   + 820.71819723154 C35(3) + 644.9356252556299 C36(6)
   + 197.53348786258 C37(5) + 563.80739763896 C38(4)
   + 2283.04897469086 C39(8) + 487.53601348831 C40(4)
   + 557.14272034459 C41(6) + 914.8749207236898 C42(4)
   + 815.0735853708101 C43(6) + 3408.87146156855 C44(15)
   - 80.05187012979999 C45(1) + 2579.63503072984 C46(14)
   + 2290.34520395181 C47(16) + 2216.93487891665 C48(12)
   + 2286.19550476281 C49(17) + 2293.237539396794 C50(14)
   + 1502.903765685933 C51(12) + 1021.02033993715 C52(4)
   + 773.3498210074702 C53(4) + 1686.71959118468 C54(14)
   + 1698.32523743739 C55(11) + 2191.74176101118 C56(9)
   + 1087.87893795137 C57(4) + 1255.51044194262 C58(8)
   + 1201.20043549805 C59(8) + 468.44741261005 C60(5)
   + 1242.97257890519 C61(8) + 284.9346910688 C62(5)
   + 151.02928619585 C63(4) + 807.0673498195799 C64(9)
   + 1415.09988805559 C65(9) + 195.97362614722 C66(3)
   + 905.40894685774 C67(6) + 607.75422213634 C68(4)
   + 202.80316845322 C69(3) + 229.6727737295199 C70(4)
   + 1066.30511212393 C71(8) + 735.81426292826 C72(6)
   + 430.43343673684 C73(8) + 967.7144099151799 C74(8)
   + 1436.74204157706 C75(9) + 782.24163388076 C76(5)
   + 1200.7607920167 C77(9) + 319.6563398371201 C78(4)
   + 1216.954622474983 C79(7) + 1312.08347916818 C80(11)
   + 76.75445725122999 C81(3) + 228.60225686767 C82(3)
   + 86.1976842059 C83(2) + 338.72599238712 C84(3)
   + 1237.43926220571 C85(9) + 112.37103385993 C86(3)
   + 525.1458919854101 C87(5) + 950.93686950386 C88(8)
   + 2579.12118910738 C89(17) + 2621.71114947588 C90(17)
   - 57.24014753978 C91(1) + 2275.949909826109 C92(14)
   + 1381.3412998733 C93(11) + 1264.01425509378 C94(8)
   + 827.3264985844899 C95(4) + 587.18521899518 C96(7)
   + 639.8664950103 C97(4) + 466.3112703657101 C98(5)
   + 243.6338916073 C99(4) + 1228.35652860785 C100(8)
   + 353.3889639308001 C101(2) + 828.2021072557002 C102(6)
   + 1316.79555830432 C103(12) + 611.9248540605399 C104(4)
   + 1475.95678725187 C105(8) + 1174.94228559191 C106(8)
   + 201.29118754372 C107(3) + 555.93485621689 C108(4)
   + 196.72808034373 C109(3) + 1844.90797833858 C110(12)
   + 1372.18906778898 C111(11) + 2132.24476545616 C112(14)
   + 388.6826684603001 C113(3) + 1865.10236744231 C114(9)
   + 1009.64807313662 C115(9) + 139.54393658116 C116(3)
   + 14.55586534515 C117(2) + 914.9017306836931 C118(8)
   + 1916.84761680169 C119(12) + 457.4845511970501 C120(6)
   + 618.84666938612 C121(5) + 2407.11604059408 C122(12)
   + 1426.64835084733 C123(10) + 1263.44675220462 C124(10)
   + 854.5547186377098 C125(6) + 2700.561406104983 C126(14)
   + 3210.613482286353 C127(14) - 75.4930744432 C128(1)
   + 1565.198098075733 C129(14) + 2019.254106800659 C130(10)
   + 1754.963112602613 C131(15) + 1804.763079591493 C132(12)
   + 1140.60740062561 C133(9) + 847.78442640447 C134(11)
   + 1201.46950588716 C135(11) + 2099.107129640443 C136(10)
   + 1219.343733424643 C137(8) + 2712.62254297464 C138(11)
   + 893.90870258682 C139(9) + 793.9595127181299 C140(8)
   + 1771.91744188834 C141(7) + 831.3241342787499 C142(9)
   + 1177.03556131277 C143(8) + 249.71662210984 C144(4)
   + 473.5174818901 C145(7) + 1653.510370093213 C146(10)
   + 485.46336683307 C147(5) + 2070.79643484357 C148(10)
   + 516.18527390722 C149(6) + 780.2574997258232 C150(10)
   + 684.8103406395601 C151(9) + 877.23258230432 C152(5)
   + 666.3470664082899 C153(7) + 372.0491487331599 C154(5)
   + 516.8276418353901 C155(7) + 2063.910474576803 C156(11)
   + 1455.484185980223 C157(9) + 2318.984505701853 C158(12)
   + 1164.21745132285 C159(8) + 1620.03075915219 C160(8)
   + 2367.08233075568 C161(12) + 1654.98145950746 C162(9)
   + 2433.82184898954 C163(9) + 1847.90166861927 C164(9)
   + 634.0284498393901 C165(6) + 1333.12680668344 C166(6)
   + 1083.6505074925 C167(8) + 3045.812836002719 C168(17)
   + 3458.449887359919 C169(17) - 84.8612857225 C170(1)
   + 2797.45800160098 C171(14) + 2237.068427259429 C172(17)
   + 1993.609230444823 C173(18) + 1717.942237032483 C174(13)
   + 1313.56852339998 C175(9) + 944.94130995403 C176(10)
   + 1649.38562230287 C177(14) + 694.0691023199729 C178(7)
   + 905.9774993116 C179(5) + 233.01172975951 C180(4)
   + 1206.88576046851 C181(8) + 1640.35211522528 C182(11)
   + 1722.98348207066 C183(12) + 1851.788354027911 C184(15)
   + 1565.93726435368 C185(12) + 454.36600594388 C186(6)
   + 873.522102542353 C187(8) + 2480.291600379669 C188(15)
   + 2103.064809058183 C189(15) + 637.533801935243 C190(9)
   + 1984.94841707245 C191(12) + 1135.83334210817 C192(11)
   + 1908.79457954513 C193(11) + 1890.08868136617 C194(12)
   + 2201.555921730033 C195(11) + 928.5313403309032 C196(11)
   + 1186.34566286091 C197(11) + 1048.21171965293 C198(11)
   + 578.16492545931 C199(8) + 584.9214190215499 C200(9)
   + 2690.74160262228 C201(16) + 1272.39483353255 C202(7)
   + 1629.68905222742 C203(6) + 1839.05005558374 C204(12)
   + 1845.130709260643 C205(9) + 1331.09359350179 C206(8)
   + 1138.95946882798 C207(10) + 979.0490756087997 C208(9)
   + 983.9389928545702 C209(8) + 910.83764611206 C210(8)
   + 2942.91848781121 C211(13) + 380.42989317275 C212(5)
   + 3417.82891657318 C213(16) + 3476.25776159489 C214(16)
   - 86.602986014 C215(1) + 2686.71780318395 C216(14)
   + 2153.725873229371 C217(15) + 2322.90137734998 C218(14)
   + 2045.460265621364 C219(18) + 2044.63930628627 C220(11)
   + 1482.66816513242 C221(11) + 2503.83411318391 C222(10)
   + 1013.28016235981 C223(7) + 1076.57728805311 C224(9)
   + 264.88025061658 C225(6) + 580.08038042107 C226(5)
   + 1061.29144330976 C227(5) + 911.5561126777601 C228(7)
   + 1594.92496881509 C229(11) + 53.8290993606 C230(2)
   + 1160.56998055628 C231(6) + 1598.88492410541 C232(9)
   + 1609.05838776106 C233(7) + 62.27346303633999 C234(2)
   + 1468.4491729206 C235(11) + 180.94613562327 C236(3)
   + 1740.21864593551 C237(9) + 862.9970321445098 C238(10)
   + 1526.66750702446 C239(9) + 784.5174649624499 C240(5)
   + 557.3124897713999 C241(5) + 1534.00815499927 C242(10)
   + 906.6501374676902 C243(7) + 671.52282357801 C244(6)
   + 98.01044290856998 C245(2) + 300.74291330341 C246(5)
   + 407.85012949676 C247(4) + 834.92049736174 C248(7)
   + 1252.556453572621 C249(10) + 188.93190795098 C250(4)
   + 966.1825044698102 C251(5) + 1819.29294689708 C252(7)
   + 889.1294617519302 C253(7) + 1033.76451272133 C254(6)
   + 3412.05357575612 C255(16) + 3473.318752133509 C256(16)
   - 58.0279050119 C257(1) + 2684.98964328574 C258(14)
   + 1110.2622380007 C259(5) + 1744.5851733044 C260(7)
   + 1389.62626674354 C261(4) + 835.6989398094 C262(5)
   + 638.9779824708 C263(2) + 199.18189699 C264(3)
   + 18.18650706730001 C265(2) + 938.2510119518601 C266(7)
   + 431.6629402213601 C267(3) + 345.99438554693 C268(3)
   + 203.5285919945 C269(2) + 17.52468849619999 C270(2)
   + 193.47638955833 C271(3) + 687.3505118412101 C272(3)
   + 2081.7628963172 C273(8) + 189.4898836801 C274(3)
   + 1932.29989062585 C275(9) + 834.6633205839798 C276(8)
   + 381.7256947768001 C277(3) + 90.2666562926 C278(2)
   + 686.2400544977399 C279(6) + 604.3803347468 C280(6)
   + 625.785311916042 C281(6) + 1801.25288499652 C282(6)
   + 538.67626233485 C283(5) + 841.99317233097 C284(3)
   + 769.4038582823499 C285(5)
Subject To
 c0: 6 C1(13) + 6 C2(13) + 6 C8(10) + 6 C9(8) + 6 C10(10) + 6 C16(6)
   + 6 C21(6) + 6 C22(7) + 6 C24(10) + 6 C26(6) + 6 C31(7) + 6 C36(6)
   + 6 C41(6) + 6 C43(6) + 6 C44(15) + 6 C49(17) + 6 C52(4) + 6 C54(14)
   + 6 C59(8) + 6 C74(8) + 6 C75(9) + 6 C77(9) + 6 C85(9) + 6 C87(5)
   + 6 C89(17) + 6 C90(17) + 6 C93(11) + 6 C124(10) + 6 C126(14)
   + 6 C127(14) + 6 C131(15) + 6 C133(9) + 6 C134(11) + 6 C135(11)
   + 6 C141(7) + 6 C168(17) + 6 C169(17) + 6 C173(18) + 6 C175(9)
   + 6 C177(14) + 6 C183(12) + 6 C186(6) + 6 C188(15) + 6 C189(15)
   + 6 C201(16) + 6 C206(8) + 6 C208(9) + 6 C210(8) + 6 C211(13)
   + 6 C213(16) + 6 C214(16) + 6 C219(18) + 6 C221(11) + 6 C222(10)
   + 6 C223(7) + 6 C242(10) + 6 C245(2) + 6 C255(16) + 6 C256(16) <= 6
 c1: 9 C2(13) + 9 C4(13) + 9 C44(15) + 9 C46(14) + 6 C47(16) + 9 C49(17)
   + 9 C50(14) + 6 C51(12) + 9 C53(4) + 6 C55(11) + 9 C57(4) + 9 C71(8)
   + 9 C76(5) + 6 C112(14) + 9 C114(9) + 9 C127(14) + 9 C138(11)
   + 9 C146(10) + 9 C148(10) + 9 C160(8) + 9 C161(12) + 9 C162(9)
   + 9 C163(9) + 9 C164(9) + 9 C166(6) + 9 C169(17) + 9 C171(14)
   + 6 C181(8) + 9 C188(15) + 9 C193(11) + 9 C194(12) + 9 C201(16)
   + 9 C204(12) + 9 C211(13) + 9 C213(16) + 9 C214(16) + 9 C216(14)
   + 9 C220(11) + 9 C222(10) + 9 C227(5) + 9 C254(6) + 9 C255(16)
   + 9 C256(16) + 9 C258(14) + 9 C272(3) + 9 C284(3) <= 9
 c2: 12 C18(6) + 12 C24(10) + 12 C27(8) + 12 C31(7) + 12 C43(6)
   + 12 C44(15) + 12 C46(14) + 12 C47(16) + 12 C48(12) + 12 C49(17)
   + 11 C54(14) + 12 C55(11) + 12 C56(9) + 12 C61(8) + 12 C62(5)
   + 12 C63(4) + 12 C65(9) + 12 C72(6) + 11 C73(8) + 12 C74(8) + 12 C75(9)
   + 12 C77(9) + 12 C80(11) + 12 C81(3) + 12 C85(9) + 12 C86(3) + 12 C87(5)
   + 12 C129(14) + 12 C131(15) + 12 C133(9) + 12 C135(11) + 9 C139(9)
   + 12 C142(9) + 12 C151(9) + 12 C153(7) + 12 C154(5) + 12 C155(7)
   + 12 C168(17) + 12 C169(17) + 12 C171(14) + 12 C172(17) + 12 C173(18)
   + 12 C175(9) + 12 C177(14) + 12 C184(15) + 12 C185(12) + 12 C186(6)
   + 12 C192(11) + 12 C197(11) + 12 C199(8) + 12 C200(9) + 12 C201(16)
   + 12 C204(12) + 12 C216(14) + 12 C217(15) + 12 C219(18) + 12 C221(11)
   + 12 C223(7) + 12 C225(6) + 12 C238(10) + 12 C242(10) + 12 C255(16)
   + 12 C256(16) + 12 C258(14) + 12 C276(8) + 12 C279(6) + 12 C281(6)
   <= 12
 c3: 4 C14(12) + 4 C17(9) + 4 C18(6) + 3 C21(6) + 3 C26(6) + 4 C89(17)
   + 4 C90(17) + 4 C93(11) + 4 C100(8) + 4 C103(12) + 4 C105(8)
   + 4 C110(12) + 4 C111(11) + 3 C115(9) + 3 C120(6) + 4 C168(17)
   + 4 C169(17) + 4 C172(17) + 4 C173(18) + 4 C184(15) + 4 C185(12)
   + 4 C191(12) + 4 C192(11) + 4 C195(11) + 4 C204(12) + 4 C207(10)
   + 4 C210(8) + 4 C211(13) + 4 C213(16) + 4 C214(16) + 4 C217(15)
   + 4 C218(14) + 4 C219(18) + 4 C222(10) + 4 C226(5) + 4 C229(11)
   + 4 C235(11) + 4 C254(6) + 4 C255(16) + 4 C256(16) + 4 C259(5)
   + 4 C266(7) + 4 C273(8) + 4 C275(9) <= 4
 c4: 8 C37(5) + 8 C49(17) + 8 C110(12) + 8 C111(11) + 8 C112(14)
   + 8 C114(9) + 8 C115(9) + 8 C120(6) + 5 C218(14) + 5 C229(11)
   + 8 C250(4) + 8 C254(6) + 5 C255(16) <= 8
 c5: 4 C0(7) + 4 C1(13) + 4 C6(6) + 4 C8(10) + 4 C15(10) + 4 C17(9)
   + 4 C28(8) + 4 C40(4) + 4 C46(14) + 4 C47(16) + 4 C48(12) + 4 C49(17)
   + 4 C50(14) + 4 C51(12) + 4 C54(14) + 4 C58(8) + 4 C64(9) + 4 C71(8)
   + 4 C73(8) + 4 C76(5) + 4 C103(12) + 4 C106(8) + 4 C116(3) + 4 C131(15)
   + 4 C133(9) + 4 C134(11) + 4 C135(11) + 4 C137(8) + 4 C139(9)
   + 4 C140(8) + 4 C142(9) + 4 C143(8) + 4 C145(7) + 4 C151(9) + 4 C177(14)
   + 4 C180(4) + 4 C188(15) + 4 C196(11) + 4 C200(9) + 4 C213(16)
   + 4 C214(16) + 4 C222(10) + 4 C235(11) + 4 C239(9) + 4 C243(7)
   + 4 C244(6) + 4 C246(5) + 4 C249(10) + 4 C253(7) + 4 C283(5) <= 4
 c6: 9 C22(7) + 9 C27(8) + 3 C31(7) + 3 C36(6) + 3 C37(5) + 3 C41(6)
   + 9 C53(4) + 9 C93(11) + 9 C96(7) + 9 C102(6) + 9 C103(12) + 9 C104(4)
   + 2 C110(12) + 5 C111(11) + 6 C123(10) + 5 C124(10) + 9 C167(8)
   + 9 C168(17) + 9 C169(17) + 9 C172(17) + 9 C173(18) + 5 C174(13)
   + 9 C176(10) + 9 C185(12) + 9 C186(6) + 5 C187(8) + 5 C189(15)
   + 9 C190(9) + 9 C191(12) + 9 C192(11) + 9 C195(11) + 9 C197(11)
   + 9 C198(11) + 9 C204(12) + 9 C207(10) + 5 C208(9) + 5 C209(8)
   + 9 C210(8) + 9 C211(13) + 6 C214(16) + 9 C219(18) + 9 C222(10)
   + 9 C228(7) + 9 C233(7) + 5 C238(10) + 5 C247(4) + 5 C252(7) + 9 C268(3)
   + 9 C271(3) + 9 C272(3) + 9 C273(8) + 5 C276(8) + 5 C279(6) + 5 C283(5)
   + 5 C285(5) <= 9
 c7: 8 C11(4) + 8 C13(5) + 8 C19(10) + 8 C32(4) + 8 C33(11) + 8 C49(17)
   + 8 C50(14) + 8 C62(5) + 8 C77(9) + 8 C88(8) + 8 C89(17) + 8 C90(17)
   + 8 C92(14) + 8 C93(11) + 8 C96(7) + 8 C100(8) + 8 C103(12) + 3 C112(14)
   + 8 C114(9) + 8 C117(2) + 4 C119(12) + 8 C122(12) + 8 C123(10)
   + 4 C124(10) + 8 C130(10) + 8 C131(15) + 4 C132(12) + 8 C134(11)
   + 8 C139(9) + 8 C143(8) + 4 C150(10) + 8 C157(9) + 4 C159(8)
   + 8 C173(18) + 8 C176(10) + 8 C178(7) + 8 C186(6) + 8 C189(15)
   + 8 C191(12) + 8 C196(11) + 4 C198(11) + 8 C201(16) + 8 C204(12)
   + 8 C207(10) + 8 C208(9) + 8 C210(8) + 8 C219(18) + 8 C224(9)
   + 8 C231(6) + 8 C232(9) + 8 C238(10) + 8 C248(7) + 8 C266(7) + 8 C271(3)
   + 8 C280(6) <= 8
 c8: 7 C0(7) + 7 C1(13) + 7 C4(13) + 7 C6(6) + 7 C9(8) + 7 C14(12)
   + 7 C16(6) + 7 C17(9) + 7 C19(10) + 7 C23(7) + 7 C24(10) + 7 C28(8)
   + 7 C29(4) + 7 C33(11) + 7 C34(8) + 7 C35(3) + 7 C36(6) + 7 C49(17)
   + 7 C60(5) + 7 C71(8) + 7 C80(11) + 7 C82(3) + 7 C92(14) + 7 C96(7)
   + 7 C131(15) + 7 C134(11) + 7 C139(9) + 4 C140(8) + 7 C142(9)
   + 7 C146(10) + 7 C153(7) + 7 C173(18) + 7 C174(13) + 7 C176(10)
   + 7 C181(8) + 7 C184(15) + 7 C190(9) + 7 C202(7) + 7 C205(9)
   + 7 C216(14) + 7 C218(14) + 7 C219(18) + 7 C229(11) + 7 C241(5)
   + 7 C273(8) + 7 C282(6) + 7 C285(5) <= 7
 c9: 8 C1(13) + 8 C2(13) + 8 C5(6) + 8 C7(7) + 8 C13(5) + 8 C44(15)
   + 8 C47(16) + 8 C50(14) + 8 C51(12) + 8 C56(9) + 8 C65(9) + 8 C89(17)
   + 8 C90(17) + 8 C100(8) + 8 C103(12) + 8 C115(9) + 8 C129(14)
   + 8 C132(12) + 8 C138(11) + 8 C148(10) + 8 C161(12) + 8 C162(9)
   + 8 C172(17) + 8 C180(4) + 8 C191(12) + 8 C212(5) + 8 C213(16)
   + 8 C214(16) + 8 C217(15) + 8 C220(11) + 8 C226(5) + 8 C234(2)
   + 8 C235(11) + 8 C236(3) + 8 C246(5) + 8 C249(10) + 8 C250(4)
   + 8 C255(16) + 8 C256(16) + 8 C266(7) <= 8
 c10: 8 C7(7) + 8 C12(5) + 8 C14(12) + 8 C15(10) + 8 C17(9) + 8 C19(10)
   + 8 C20(6) + 8 C23(7) + 8 C25(8) + 8 C30(9) + 8 C33(11) + 8 C34(8)
   + 8 C42(4) + 8 C50(14) + 8 C51(12) + 8 C60(5) + 8 C79(7) + 8 C118(8)
   + 8 C125(6) + 8 C126(14) + 8 C127(14) + 8 C129(14) + 8 C130(10)
   + 8 C131(15) + 8 C132(12) + 8 C136(10) + 8 C137(8) + 8 C146(10)
   + 8 C150(10) + 8 C156(11) + 8 C157(9) + 8 C158(12) + 4 C173(18)
   + 8 C174(13) + 8 C178(7) + 8 C181(8) + 8 C187(8) + 8 C190(9)
   + 8 C195(11) + 8 C196(11) + 8 C205(9) + 8 C219(18) <= 8
 c11: 11 C4(13) + 8 C14(12) + 11 C16(6) + 11 C22(7) + 11 C24(10)
   + 11 C25(8) + 11 C26(6) + 11 C30(9) + 11 C31(7) + 11 C33(11) + 11 C34(8)
   + 11 C36(6) + 11 C41(6) + 11 C48(12) + 11 C49(17) + 11 C54(14)
   + 11 C65(9) + 11 C66(3) + 11 C74(8) + 11 C75(9) + 11 C76(5) + 11 C78(4)
   + 11 C80(11) + 11 C93(11) + 11 C98(5) + 11 C106(8) + 11 C107(3)
   + 11 C108(4) + 11 C115(9) + 11 C116(3) + 11 C121(5) + 11 C123(10)
   + 11 C130(10) + 8 C131(15) + 11 C135(11) + 8 C139(9) + 11 C140(8)
   + 11 C149(6) + 11 C155(7) + 8 C173(18) + 11 C177(14) + 11 C189(15)
   + 11 C212(5) + 11 C213(16) + 11 C214(16) + 8 C218(14) + 11 C219(18)
   + 11 C224(9) + 8 C229(11) + 11 C232(9) + 11 C235(11) + 11 C237(9)
   + 11 C239(9) + 11 C243(7) + 11 C248(7) + 11 C249(10) + 11 C251(5)
   + 11 C253(7) + 11 C260(7) <= 11
 c12: 15 C2(13) + 15 C4(13) + 15 C10(10) + 13 C19(10) + 15 C24(10)
   + 8 C30(9) + 15 C33(11) + 15 C34(8) + 15 C39(8) + 15 C40(4) + 15 C47(16)
   + 15 C50(14) + 15 C51(12) + 15 C53(4) + 15 C54(14) + 15 C64(9)
   + 15 C65(9) + 15 C68(4) + 9 C89(17) + 9 C90(17) + 2 C92(14) + 9 C93(11)
   + 15 C96(7) + 15 C97(4) + 9 C103(12) + 15 C105(8) + 15 C106(8)
   + 9 C119(12) + 15 C122(12) + 13 C123(10) + 9 C124(10) + 15 C125(6)
   + 15 C126(14) + 9 C129(14) + 15 C130(10) + 13 C131(15) + 9 C132(12)
   + 9 C133(9) + 15 C134(11) + 15 C135(11) + 15 C137(8) + 15 C142(9)
   + 15 C145(7) + 15 C149(6) + 9 C150(10) + 15 C151(9) + 15 C152(5)
   + 15 C156(11) + 13 C157(9) + 15 C158(12) + 9 C159(8) + 15 C165(6)
   + 15 C171(14) + 9 C172(17) + 13 C173(18) + 9 C174(13) + 15 C175(9)
   + 15 C176(10) + 15 C177(14) + 9 C183(12) + 9 C184(15) + 15 C188(15)
   + 15 C189(15) + 15 C192(11) + 15 C193(11) + 15 C194(12) + 9 C197(11)
   + 9 C198(11) + 15 C199(8) + 15 C200(9) + 15 C201(16) + 15 C203(6)
   + 15 C204(12) + 13 C207(10) + 13 C208(9) + 9 C210(8) + 15 C211(13)
   + 9 C216(14) + 9 C217(15) + 15 C218(14) + 13 C219(18) + 9 C220(11)
   + 15 C221(11) + 9 C238(10) + 15 C242(10) + 8 C255(16) + 8 C256(16)
   + 9 C258(14) + 15 C276(8) + 15 C279(6) + 15 C280(6) <= 17
 c13: 6 C8(10) + 6 C9(8) + 6 C10(10) + 6 C15(10) + 6 C18(6) + 6 C27(8)
   + 6 C28(8) + 6 C46(14) + 6 C49(17) + 6 C54(14) + 6 C55(11) + 6 C61(8)
   + 6 C63(4) + 6 C64(9) + 6 C70(4) + 6 C71(8) + 6 C73(8) + 6 C80(11)
   + 6 C96(7) + 6 C112(14) + 6 C134(11) + 6 C135(11) + 6 C137(8)
   + 6 C142(9) + 6 C145(7) + 6 C147(5) + 6 C149(6) + 6 C151(9) + 6 C153(7)
   + 6 C154(5) + 6 C155(7) + 6 C163(9) + 6 C165(6) + 6 C167(8) + 6 C168(17)
   + 6 C169(17) + 6 C171(14) + 6 C176(10) + 6 C177(14) + 6 C182(11)
   + 6 C184(15) + 6 C185(12) + 6 C190(9) + 6 C192(11) + 6 C193(11)
   + 6 C194(12) + 6 C196(11) + 6 C197(11) + 6 C199(8) + 6 C200(9)
   + 6 C202(7) + 6 C204(12) + 6 C207(10) + 6 C209(8) + 6 C216(14)
   + 6 C217(15) + 6 C225(6) + 6 C238(10) + 6 C258(14) + 6 C276(8)
   + 6 C280(6) + 6 C281(6) <= 6
 c14: 2 C10(10) + 11 C13(5) + 4 C14(12) + 11 C17(9) + 11 C59(8) + 11 C60(5)
   + 11 C62(5) + 11 C64(9) + 11 C67(6) + 11 C70(4) + 11 C72(6) + 11 C94(8)
   + 11 C106(8) + 11 C110(12) + 10 C111(11) + 11 C118(8) + 11 C124(10)
   + 11 C167(8) + 11 C168(17) + 11 C169(17) + 11 C172(17) + 11 C173(18)
   + 11 C176(10) + 11 C184(15) + 11 C186(6) + 11 C189(15) + 11 C190(9)
   + 11 C191(12) + 11 C192(11) + 11 C195(11) + 11 C197(11) + 11 C198(11)
   + 11 C199(8) + 11 C200(9) + 11 C204(12) + 11 C205(9) + 11 C207(10)
   + 11 C208(9) + 11 C209(8) + 11 C210(8) + 11 C211(13) + 11 C217(15)
   + 11 C219(18) + 9 C233(7) + 11 C238(10) + 11 C252(7) + 5 C256(16)
   + 11 C266(7) + 11 C275(9) + 11 C276(8) <= 11
 c15: 11 C8(10) + 11 C9(8) + 11 C14(12) + 11 C15(10) + 11 C18(6) + 4 C20(6)
   + 11 C21(6) + 11 C22(7) + 11 C23(7) + 11 C25(8) + 11 C26(6) + 4 C27(8)
   + 11 C28(8) + 11 C29(4) + 11 C30(9) + 11 C31(7) + 11 C32(4) + 11 C37(5)
   + 11 C38(4) + 11 C41(6) + 11 C47(16) + 11 C88(8) + 11 C89(17)
   + 11 C90(17) + 4 C92(14) + 11 C94(8) + 11 C95(4) + 11 C96(7)
   + 11 C103(12) + 4 C110(12) + 11 C111(11) + 5 C126(14) + 5 C127(14)
   + 11 C129(14) + 11 C130(10) + 11 C131(15) + 11 C133(9) + 11 C134(11)
   + 11 C139(9) + 11 C140(8) + 5 C144(4) + 4 C149(6) + 5 C150(10)
   + 5 C151(9) + 4 C156(11) + 5 C158(12) + 10 C172(17) + 11 C173(18)
   + 11 C176(10) + 11 C181(8) + 11 C182(11) + 5 C188(15) + 10 C189(15)
   + 11 C190(9) + 10 C193(11) + 4 C194(12) + 4 C198(11) + 5 C201(16)
   + 11 C227(5) + 11 C228(7) + 11 C267(3) + 11 C270(2) + 11 C275(9) <= 11
 c16: 5 C2(13) + 5 C15(10) + 5 C44(15) + 5 C47(16) + 5 C48(12) + 5 C58(8)
   + 5 C89(17) + 5 C90(17) + 5 C94(8) + 5 C102(6) + 5 C126(14) + 5 C127(14)
   + 5 C129(14) + 5 C130(10) + 5 C136(10) + 5 C141(7) + 5 C144(4)
   + 5 C146(10) + 5 C147(5) + 5 C150(10) + 5 C151(9) + 5 C153(7)
   + 5 C154(5) + 5 C158(12) + 5 C160(8) + 5 C161(12) + 5 C164(9)
   + 5 C165(6) + 5 C166(6) + 5 C168(17) + 5 C169(17) + 5 C172(17)
   + 5 C174(13) + 5 C178(7) + 5 C182(11) + 5 C188(15) + 5 C189(15)
   + 5 C191(12) + 5 C193(11) + 5 C194(12) + 5 C198(11) + 5 C201(16)
   + 5 C202(7) + 5 C204(12) + 5 C205(9) + 5 C207(10) + 5 C209(8)
   + 5 C211(13) + 5 C213(16) + 5 C214(16) + 5 C217(15) + 5 C218(14)
   + 5 C224(9) + 5 C228(7) + 5 C229(11) + 5 C232(9) + 5 C235(11)
   + 5 C237(9) + 5 C239(9) + 5 C241(5) + 5 C243(7) + 5 C248(7) + 5 C249(10)
   + 5 C251(5) + 5 C253(7) + 5 C254(6) + 5 C255(16) + 5 C256(16)
   + 5 C260(7) + 5 C262(5) + 5 C268(3) <= 5
 c17: 11 C14(12) + 11 C15(10) + 11 C38(4) + 5 C47(16) + 11 C49(17)
   + 4 C50(14) + 11 C51(12) + 11 C54(14) + 11 C57(4) + 11 C63(4) + 5 C64(9)
   + 11 C67(6) + 11 C70(4) + 5 C71(8) + 11 C72(6) + 11 C73(8) + 11 C74(8)
   + 11 C83(2) + 11 C84(3) + 11 C85(9) + 11 C86(3) + 11 C87(5) + 11 C97(4)
   + 11 C99(4) + 4 C132(12) + 5 C134(11) + 11 C135(11) + 5 C142(9)
   + 5 C145(7) + 5 C147(5) + 11 C148(10) + 5 C153(7) + 11 C154(5)
   + 5 C155(7) + 11 C161(12) + 11 C162(9) + 4 C163(9) + 5 C165(6)
   + 11 C173(18) + 11 C174(13) + 11 C175(9) + 11 C177(14) + 11 C181(8)
   + 11 C182(11) + 5 C183(12) + 5 C184(15) + 5 C185(12) + 5 C188(15)
   + 11 C189(15) + 5 C193(11) + 11 C194(12) + 5 C197(11) + 5 C199(8)
   + 5 C200(9) + 5 C201(16) + 11 C206(8) + 5 C209(8) + 11 C219(18)
   + 11 C220(11) + 11 C221(11) + 11 C223(7) + 11 C225(6) + 11 C235(11)
   + 11 C249(10) + 11 C254(6) + 4 C275(9) <= 11
 c18: 5 C1(13) + 5 C2(13) + 5 C4(13) + 5 C5(6) + 5 C19(10) + 5 C30(9)
   + 5 C32(4) + 5 C33(11) + 5 C39(8) + 5 C44(15) + 5 C46(14) + 5 C47(16)
   + 5 C49(17) + 5 C50(14) + 5 C55(11) + 5 C62(5) + 5 C65(9) + 5 C74(8)
   + 5 C75(9) + 5 C77(9) + 5 C80(11) + 5 C85(9) + 5 C89(17) + 5 C90(17)
   + 5 C92(14) + 5 C93(11) + 5 C112(14) + 5 C114(9) + 5 C119(12)
   + 5 C123(10) + 5 C124(10) + 5 C125(6) + 5 C126(14) + 5 C129(14)
   + 5 C131(15) + 5 C132(12) + 5 C150(10) + 5 C152(5) + 5 C156(11)
   + 5 C157(9) + 5 C158(12) + 5 C159(8) + 5 C168(17) + 5 C169(17)
   + 5 C171(14) + 5 C172(17) + 5 C173(18) + 5 C183(12) + 5 C184(15)
   + 5 C187(8) + 5 C188(15) + 5 C189(15) + 5 C191(12) + 5 C196(11)
   + 5 C198(11) + 5 C207(10) + 5 C208(9) + 5 C213(16) + 5 C214(16)
   + 5 C216(14) + 5 C217(15) + 5 C219(18) + 5 C220(11) + 5 C229(11)
   + 5 C235(11) + 5 C237(9) + 5 C239(9) + 5 C241(5) + 5 C242(10)
   + 5 C249(10) + 5 C255(16) + 5 C256(16) + 5 C258(14) + 5 C273(8) <= 5
 c19: 10 C33(11) + 10 C48(12) + 10 C88(8) + 10 C89(17) + 10 C94(8)
   + 10 C100(8) + 10 C105(8) + 10 C124(10) + 9 C138(11) + 9 C146(10)
   + 9 C148(10) + 2 C160(8) + 9 C161(12) + 9 C162(9) + 10 C163(9)
   + 9 C164(9) + 10 C166(6) + 2 C171(14) + 10 C174(13) + 10 C182(11)
   + 9 C183(12) + 10 C187(8) + 2 C188(15) + 10 C189(15) + 10 C193(11)
   + 10 C194(12) + 10 C201(16) + 10 C206(8) + 10 C208(9) + 10 C209(8)
   + 10 C218(14) + 10 C229(11) + 6 C233(7) + 10 C238(10) + 10 C247(4)
   + 10 C252(7) + 10 C255(16) + 10 C256(16) + 2 C258(14) + 10 C260(7)
   + 10 C262(5) + 10 C266(7) + 10 C269(2) + 10 C276(8) + 10 C279(6)
   + 10 C282(6) + 10 C283(5) + 10 C285(5) <= 10
 c20: 13 C0(7) + 13 C1(13) + 13 C2(13) + 13 C4(13) + 13 C5(6) + 13 C8(10)
   + 13 C10(10) + 11 C14(12) + 13 C16(6) + 13 C19(10) + 13 C20(6)
   + 13 C24(10) + 13 C25(8) + 13 C30(9) + 5 C33(11) + 13 C34(8) + 13 C38(4)
   + 13 C39(8) + 13 C40(4) + 13 C54(14) + 13 C58(8) + 13 C61(8)
   + 13 C92(14) + 13 C97(4) + 13 C104(4) + 13 C122(12) + 8 C127(14)
   + 6 C138(11) + 6 C146(10) + 6 C148(10) + 13 C160(8) + 6 C161(12)
   + 6 C162(9) + 5 C163(9) + 6 C164(9) + 13 C171(14) + 13 C177(14)
   + 5 C182(11) + 6 C183(12) + 13 C188(15) + 5 C193(11) + 5 C194(12)
   + 5 C201(16) + 13 C203(6) + 5 C206(8) + 13 C223(7) + 13 C237(9)
   + 13 C258(14) + 13 C259(5) <= 13
 c21: <= 0
 c22: 4 C9(8) + 10 C16(6) + 9 C24(10) + 4 C44(15) + 9 C46(14) + 10 C47(16)
   + 10 C48(12) + 10 C49(17) + 4 C54(14) + 10 C55(11) + 10 C59(8)
   + 10 C61(8) + 10 C64(9) + 10 C65(9) + 10 C67(6) + 10 C68(4) + 10 C71(8)
   + 4 C73(8) + 10 C75(9) + 10 C77(9) + 10 C80(11) + 10 C85(9)
   + 10 C129(14) + 4 C131(15) + 4 C133(9) + 10 C134(11) + 10 C135(11)
   + 10 C142(9) + 10 C145(7) + 10 C147(5) + 10 C149(6) + 10 C151(9)
   + 10 C153(7) + 10 C155(7) + 10 C165(6) + 10 C167(8) + 10 C168(17)
   + 10 C169(17) + 10 C171(14) + 10 C172(17) + 10 C173(18) + 10 C176(10)
   + 4 C177(14) + 10 C183(12) + 10 C184(15) + 10 C185(12) + 10 C188(15)
   + 10 C189(15) + 9 C191(12) + 9 C192(11) + 10 C193(11) + 4 C194(12)
   + 10 C197(11) + 10 C199(8) + 10 C200(9) + 10 C201(16) + 9 C202(7)
   + 10 C206(8) + 10 C209(8) + 9 C211(13) + 10 C216(14) + 10 C217(15)
   + 10 C219(18) + 10 C223(7) + 10 C242(10) + 4 C255(16) + 4 C256(16)
   + 10 C258(14) + 10 C276(8) + 10 C279(6) + 10 C281(6) <= 10
 c23: 15 C1(13) + 15 C2(13) + 4 C4(13) + 15 C12(5) + 15 C21(6) + 4 C22(7)
   + 8 C23(7) + 4 C24(10) + 4 C33(11) + 15 C39(8) + 15 C42(4) + 15 C43(6)
   + 15 C44(15) + 15 C46(14) + 15 C51(12) + 15 C55(11) + 15 C56(9)
   + 15 C64(9) + 15 C77(9) + 15 C79(7) + 15 C84(3) + 15 C85(9) + 15 C87(5)
   + 15 C92(14) + 15 C94(8) + 15 C110(12) + 15 C118(8) + 15 C119(12)
   + 15 C122(12) + 15 C124(10) + 15 C126(14) + 15 C127(14) + 15 C136(10)
   + 8 C146(10) + 15 C156(11) + 15 C158(12) + 15 C160(8) + 15 C164(9)
   + 15 C166(6) + 15 C168(17) + 15 C169(17) + 15 C171(14) + 8 C174(13)
   + 15 C188(15) + 15 C201(16) + 15 C204(12) + 8 C205(9) + 15 C211(13)
   + 4 C213(16) + 4 C214(16) + 15 C216(14) + 15 C255(16) + 15 C256(16)
   + 15 C258(14) + 15 C262(5) <= 15
 c24: 7 C1(13) + 7 C2(13) + 7 C5(6) + 7 C8(10) + 7 C14(12) + 7 C30(9)
   + 7 C39(8) + 7 C44(15) + 7 C47(16) + 7 C51(12) + 7 C52(4) + 7 C56(9)
   + 7 C60(5) + 7 C65(9) + 7 C74(8) + 7 C75(9) + 7 C85(9) + 7 C94(8)
   + 7 C112(14) + 7 C125(6) + 7 C126(14) + 7 C127(14) + 7 C129(14)
   + 7 C136(10) + 7 C138(11) + 7 C148(10) + 7 C152(5) + 7 C156(11)
   + 7 C158(12) + 7 C161(12) + 7 C162(9) + 7 C163(9) + 7 C164(9)
   + 7 C168(17) + 7 C169(17) + 7 C172(17) + 7 C174(13) + 7 C175(9)
   + 7 C178(7) + 7 C184(15) + 7 C185(12) + 7 C187(8) + 7 C189(15)
   + 7 C195(11) + 7 C196(11) + 7 C206(8) + 7 C211(13) + 7 C213(16)
   + 7 C214(16) + 7 C217(15) + 7 C221(11) + 7 C222(10) + 7 C235(11)
   + 7 C239(9) + 7 C242(10) + 7 C249(10) + 7 C252(7) + 7 C255(16)
   + 7 C256(16) + 7 C259(5) + 7 C273(8) + 7 C282(6) + 7 C285(5) <= 7
 c25: <= 0
 c26: 6 C4(13) + 6 C61(8) + 6 C66(3) + 6 C71(8) + 6 C73(8) + 6 C76(5)
   + 6 C78(4) + 6 C79(7) + 6 C80(11) + 6 C92(14) + 6 C99(4) + 6 C103(12)
   + 6 C104(4) + 6 C107(3) + 6 C111(11) + 6 C119(12) + 6 C138(11)
   + 6 C146(10) + 6 C148(10) + 6 C160(8) + 6 C161(12) + 6 C162(9)
   + 6 C164(9) + 5 C166(6) + 6 C176(10) + 6 C179(5) + 6 C183(12)
   + 6 C185(12) + 6 C190(9) + 6 C196(11) + 6 C197(11) + 6 C198(11)
   + 6 C203(6) + 6 C212(5) + 6 C213(16) + 6 C218(14) + 6 C221(11)
   + 6 C225(6) + 6 C229(11) + 6 C235(11) + 6 C239(9) + 6 C241(5)
   + 6 C242(10) + 6 C244(6) + 6 C249(10) + 6 C253(7) + 6 C280(6)
   + 6 C281(6) <= 6
 c27: 6 C1(13) + 6 C2(13) + 6 C4(13) + 6 C10(10) + 6 C19(10) + 6 C39(8)
   + 6 C44(15) + 6 C46(14) + 6 C48(12) + 6 C55(11) + 6 C56(9) + 6 C61(8)
   + 6 C65(9) + 6 C67(6) + 6 C72(6) + 6 C75(9) + 6 C125(6) + 6 C126(14)
   + 6 C127(14) + 6 C130(10) + 6 C132(12) + 6 C135(11) + 6 C136(10)
   + 6 C138(11) + 6 C141(7) + 6 C148(10) + 6 C152(5) + 6 C156(11)
   + 6 C158(12) + 6 C161(12) + 6 C163(9) + 6 C168(17) + 6 C169(17)
   + 6 C171(14) + 6 C182(11) + 6 C185(12) + 6 C195(11) + 6 C197(11)
   + 6 C205(9) + 6 C213(16) + 6 C214(16) + 6 C216(14) + 6 C218(14)
   + 6 C220(11) + 6 C222(10) + 6 C233(7) + 6 C239(9) + 6 C252(7)
   + 6 C255(16) + 6 C256(16) + 6 C258(14) + 6 C260(7) + 6 C261(4)
   + 6 C273(8) + 6 C275(9) + 6 C282(6) <= 6
 c28: 9 C17(9) + 9 C43(6) + 9 C44(15) + 9 C46(14) + 9 C47(16) + 9 C48(12)
   + 9 C49(17) + 9 C50(14) + 9 C56(9) + 9 C58(8) + 9 C59(8) + 9 C68(4)
   + 9 C80(11) + 9 C90(17) + 9 C92(14) + 9 C102(6) + 9 C110(12)
   + 9 C112(14) + 9 C113(3) + 9 C114(9) + 9 C118(8) + 9 C119(12)
   + 9 C122(12) + 9 C123(10) + 9 C203(6) + 9 C216(14) + 9 C217(15)
   + 9 C220(11) + 9 C228(7) + 9 C231(6) + 9 C232(9) + 9 C240(5)
   + 9 C242(10) + 9 C259(5) + 9 C260(7) + 9 C261(4) + 9 C275(9) + 9 C277(3)
   + 9 C280(6) + 9 C281(6) + 9 C284(3) <= 9
 c29: 11 C7(7) + 11 C9(8) + 11 C10(10) + 11 C15(10) + 11 C20(6) + 11 C27(8)
   + 11 C46(14) + 11 C47(16) + 11 C50(14) + 11 C54(14) + 11 C55(11)
   + 11 C58(8) + 11 C64(9) + 11 C88(8) + 10 C89(17) + 10 C90(17)
   + 11 C92(14) + 11 C102(6) + 11 C105(8) + 11 C110(12) + 11 C111(11)
   + 11 C112(14) + 4 C115(9) + 11 C118(8) + 11 C119(12) + 11 C120(6)
   + 11 C122(12) + 10 C126(14) + 10 C127(14) + 11 C132(12) + 11 C134(11)
   + 11 C135(11) + 10 C136(10) + 11 C138(11) + 10 C141(7) + 10 C144(4)
   + 10 C150(10) + 10 C151(9) + 11 C156(11) + 10 C158(12) + 7 C161(12)
   + 11 C171(14) + 11 C172(17) + 11 C177(14) + 11 C182(11) + 11 C187(8)
   + 10 C188(15) + 7 C191(12) + 11 C194(12) + 11 C198(11) + 10 C201(16)
   + 11 C228(7) + 11 C258(14) + 11 C275(9) <= 11
 c30: 5 C7(7) + 5 C12(5) + 5 C20(6) + 5 C23(7) + 5 C25(8) + 5 C28(8)
   + 5 C30(9) + 5 C33(11) + 5 C34(8) + 5 C49(17) + 5 C50(14) + 5 C51(12)
   + 5 C79(7) + 5 C80(11) + 5 C89(17) + 5 C90(17) + 5 C93(11) + 5 C112(14)
   + 5 C118(8) + 5 C126(14) + 5 C127(14) + 5 C129(14) + 5 C131(15)
   + 5 C132(12) + 5 C136(10) + 5 C137(8) + 5 C145(7) + 5 C146(10)
   + 5 C150(10) + 5 C155(7) + 5 C156(11) + 5 C157(9) + 5 C158(12)
   + 5 C160(8) + 5 C164(9) + 5 C167(8) + 5 C168(17) + 5 C169(17)
   + 5 C173(18) + 5 C174(13) + 5 C178(7) + 5 C179(5) + 5 C185(12)
   + 5 C187(8) + 4 C189(15) + 5 C190(9) + 5 C192(11) + 5 C195(11)
   + 5 C196(11) + 5 C197(11) + 5 C199(8) + 5 C200(9) + 5 C204(12)
   + 5 C205(9) + 5 C219(18) + 5 C233(7) + 5 C247(4) <= 5
 c31: 6 C14(12) + 2 C19(10) + 6 C59(8) + 6 C80(11) + 6 C88(8) + 6 C89(17)
   + 6 C90(17) + 6 C93(11) + 6 C103(12) + 6 C119(12) + 2 C123(10)
   + 6 C124(10) + 6 C129(14) + 2 C131(15) + 6 C132(12) + 6 C133(9)
   + 6 C136(10) + 6 C139(9) + 6 C143(8) + 6 C150(10) + 2 C157(9)
   + 6 C159(8) + 6 C172(17) + 2 C173(18) + 6 C174(13) + 6 C183(12)
   + 6 C184(15) + 6 C185(12) + 6 C195(11) + 6 C198(11) + 2 C207(10)
   + 2 C208(9) + 6 C210(8) + 6 C216(14) + 6 C217(15) + 2 C219(18)
   + 6 C220(11) + 6 C221(11) + 6 C224(9) + 6 C232(9) + 6 C237(9)
   + 6 C238(10) + 6 C258(14) <= 6
 c32: 9 C27(8) + 9 C48(12) + 9 C58(8) + 9 C69(3) + 9 C99(4) + 9 C102(6)
   + 9 C109(3) + 9 C120(6) + 9 C179(5) + 9 C182(11) + 9 C184(15)
   + 9 C212(5) + 9 C213(16) + 9 C214(16) + 9 C216(14) + 9 C217(15)
   + 9 C218(14) + 9 C219(18) + 9 C220(11) + 9 C222(10) + 9 C225(6)
   + 9 C228(7) + 9 C232(9) + 9 C237(9) + 9 C238(10) + 9 C243(7) + 9 C244(6)
   + 9 C246(5) + 9 C265(2) <= 9
 c33: 11 C0(7) + 11 C1(13) + 11 C2(13) + 11 C6(6) + 11 C7(7) + 11 C8(10)
   + 11 C9(8) + 11 C10(10) + 11 C12(5) + 11 C17(9) + 11 C19(10) + 11 C23(7)
   + 11 C25(8) + 11 C28(8) + 11 C29(4) + 11 C34(8) + 11 C35(3) + 11 C39(8)
   + 11 C42(4) + 11 C44(15) + 11 C50(14) + 11 C52(4) + 11 C56(9)
   + 11 C79(7) + 11 C95(4) + 11 C126(14) + 11 C127(14) + 11 C130(10)
   + 11 C131(15) + 11 C132(12) + 11 C133(9) + 11 C136(10) + 11 C137(8)
   + 11 C138(11) + 11 C141(7) + 11 C156(11) + 11 C157(9) + 11 C158(12)
   + 11 C163(9) + 11 C179(5) + 11 C195(11) + 11 C203(6) + 11 C205(9)
   + 11 C213(16) + 11 C214(16) + 11 C222(10) + 11 C233(7) + 11 C252(7)
   + 11 C255(16) + 11 C256(16) + 11 C261(4) + 11 C263(2) + 11 C273(8)
   + 11 C275(9) + 11 C282(6) <= 11
 c34: 6 C0(7) + 6 C1(13) + 6 C2(13) + 6 C5(6) + 6 C6(6) + 6 C7(7)
   + 6 C8(10) + 6 C10(10) + 6 C11(4) + 6 C24(10) + 6 C98(5) + 6 C100(8)
   + 6 C115(9) + 6 C121(5) + 5 C129(14) + 6 C138(11) + 5 C140(8)
   + 6 C148(10) + 6 C161(12) + 6 C162(9) + 5 C172(17) + 6 C192(11)
   + 6 C218(14) + 6 C220(11) + 6 C224(9) + 6 C226(5) + 6 C235(11)
   + 6 C236(3) + 6 C244(6) + 6 C246(5) + 6 C249(10) + 6 C250(4) + 6 C274(3)
   <= 6
 c35: 9 C11(4) + 9 C43(6) + 6 C44(15) + 6 C46(14) + 9 C47(16) + 6 C49(17)
   + 6 C50(14) + 9 C51(12) + 9 C54(14) + 9 C55(11) + 9 C59(8) + 9 C67(6)
   + 9 C72(6) + 9 C73(8) + 9 C74(8) + 9 C75(9) + 9 C77(9) + 9 C78(4)
   + 9 C79(7) + 9 C81(3) + 9 C82(3) + 9 C85(9) + 9 C98(5) + 9 C112(14)
   + 9 C113(3) + 9 C118(8) + 9 C122(12) + 9 C175(9) + 9 C177(14)
   + 9 C178(7) + 9 C181(8) + 9 C195(11) + 9 C196(11) + 9 C221(11)
   + 9 C224(9) + 9 C227(5) + 9 C231(6) + 9 C240(5) + 9 C248(7) + 9 C264(3)
   + 9 C277(3) <= 9
 c36: 8 C0(7) + 8 C1(13) + 8 C4(13) + 8 C6(6) + 8 C8(10) + 8 C13(5)
   + 8 C15(10) + 8 C17(9) + 8 C25(8) + 8 C28(8) + 8 C44(15) + 8 C46(14)
   + 8 C48(12) + 8 C49(17) + 8 C55(11) + 8 C56(9) + 8 C58(8) + 8 C89(17)
   + 8 C90(17) + 8 C92(14) + 8 C93(11) + 8 C94(8) + 8 C100(8) + 8 C122(12)
   + 8 C143(8) + 8 C171(14) + 8 C173(18) + 8 C174(13) + 8 C175(9)
   + 8 C180(4) + 8 C182(11) + 8 C183(12) + 8 C188(15) + 8 C193(11)
   + 8 C194(12) + 8 C196(11) + 8 C201(16) + 8 C206(8) + 8 C219(18)
   + 8 C221(11) + 8 C226(5) + 8 C266(7) + 8 C283(5) <= 8
 c37: 5 C4(13) + 5 C88(8) + 4 C89(17) + 4 C90(17) + 5 C92(14) + 5 C95(4)
   + 5 C98(5) + 5 C103(12) + 5 C105(8) + 5 C106(8) + 5 C108(4) + 4 C110(12)
   + 5 C111(11) + 5 C112(14) + 5 C114(9) + 5 C119(12) + 5 C121(5)
   + 4 C122(12) + 5 C123(10) + 5 C140(8) + 5 C143(8) + 5 C159(8)
   + 5 C218(14) + 5 C224(9) + 5 C229(11) + 5 C230(2) + 5 C232(9)
   + 5 C237(9) + 5 C240(5) + 5 C243(7) + 5 C248(7) + 5 C251(5) + 5 C253(7)
   <= 5
 c38: 5 C15(10) + 5 C47(16) + 5 C54(14) + 5 C59(8) + 5 C77(9) + 5 C88(8)
   + 5 C89(17) + 5 C90(17) + 5 C100(8) + 5 C103(12) + 4 C105(8) + 5 C106(8)
   + 5 C108(4) + 5 C110(12) + 5 C111(11) + 5 C112(14) + 5 C114(9)
   + 5 C115(9) + 4 C119(12) + 4 C121(5) + 5 C122(12) + 5 C123(10)
   + 5 C126(14) + 5 C127(14) + 5 C129(14) + 5 C130(10) + 5 C137(8)
   + 5 C140(8) + 5 C141(7) + 5 C142(9) + 4 C143(8) + 5 C157(9) + 4 C159(8)
   + 5 C168(17) + 5 C169(17) + 5 C172(17) + 5 C177(14) + 5 C183(12)
   + 5 C184(15) + 5 C191(12) + 5 C201(16) + 5 C202(7) + 5 C211(13)
   + 5 C213(16) + 5 C214(16) + 5 C217(15) + 5 C229(11) + 5 C231(6)
   + 5 C239(9) + 5 C240(5) + 5 C242(10) + 5 C243(7) + 5 C253(7) <= 5
 c39: 6 C4(13) + 6 C14(12) + 6 C46(14) + 6 C48(12) + 6 C57(4) + 6 C89(17)
   + 6 C90(17) + 6 C92(14) + 6 C101(2) + 6 C105(8) + 5 C106(8) + 6 C110(12)
   + 5 C111(11) + 5 C112(14) + 5 C114(9) + 6 C119(12) + 6 C122(12)
   + 6 C139(9) + 6 C143(8) + 6 C159(8) + 6 C167(8) + 6 C168(17)
   + 6 C169(17) + 6 C171(14) + 6 C175(9) + 6 C181(8) + 6 C191(12)
   + 6 C202(7) + 6 C211(13) + 6 C216(14) + 6 C218(14) + 6 C221(11)
   + 6 C227(5) + 6 C231(6) + 6 C232(9) + 6 C237(9) + 6 C244(6) + 6 C251(5)
   + 6 C258(14) + 6 C260(7) + 6 C267(3) <= 6
 c40: 11 C18(6) + 12 C21(6) + 6 C22(7) + 12 C26(6) + 6 C27(8) + 12 C31(7)
   + 12 C36(6) + 12 C37(5) + 12 C41(6) + 12 C51(12) + 12 C54(14)
   + 12 C61(8) + 12 C69(3) + 12 C109(3) + 12 C115(9) + 12 C120(6)
   + 12 C167(8) + 12 C168(17) + 12 C172(17) + 12 C177(14) + 11 C184(15)
   + 12 C192(11) + 12 C223(7) + 12 C224(9) + 12 C248(7) + 12 C262(5)
   + 12 C264(3) + 12 C274(3) + 12 C278(2) <= 12
 c41: C0(7) + C1(13) + C2(13) + C3(1) + C4(13) + C5(6) + C6(6) + C7(7)
   + C8(10) + C9(8) + C10(10) + C11(4) + C12(5) + C13(5) + C14(12)
   + C15(10) + C16(6) + C17(9) + C18(6) + C19(10) + C20(6) + C21(6)
   + C22(7) + C23(7) + C24(10) + C25(8) + C26(6) + C27(8) + C28(8) + C29(4)
   + C30(9) + C31(7) + C32(4) + C33(11) + C34(8) + C35(3) + C36(6) + C37(5)
   + C38(4) + C39(8) + C40(4) + C41(6) + C42(4) = 1
 c42: C43(6) + C44(15) + C45(1) + C46(14) + C47(16) + C48(12) + C49(17)
   + C50(14) + C51(12) + C52(4) + C53(4) + C54(14) + C55(11) + C56(9)
   + C57(4) + C58(8) + C59(8) + C60(5) + C61(8) + C62(5) + C63(4) + C64(9)
   + C65(9) + C66(3) + C67(6) + C68(4) + C69(3) + C70(4) + C71(8) + C72(6)
   + C73(8) + C74(8) + C75(9) + C76(5) + C77(9) + C78(4) + C79(7) + C80(11)
   + C81(3) + C82(3) + C83(2) + C84(3) + C85(9) + C86(3) + C87(5) = 1
 c43: C88(8) + C89(17) + C90(17) + C91(1) + C92(14) + C93(11) + C94(8)
   + C95(4) + C96(7) + C97(4) + C98(5) + C99(4) + C100(8) + C101(2)
   + C102(6) + C103(12) + C104(4) + C105(8) + C106(8) + C107(3) + C108(4)
   + C109(3) + C110(12) + C111(11) + C112(14) + C113(3) + C114(9) + C115(9)
   + C116(3) + C117(2) + C118(8) + C119(12) + C120(6) + C121(5) + C122(12)
   + C123(10) + C124(10) = 1
 c44: C125(6) + C126(14) + C127(14) + C128(1) + C129(14) + C130(10)
   + C131(15) + C132(12) + C133(9) + C134(11) + C135(11) + C136(10)
   + C137(8) + C138(11) + C139(9) + C140(8) + C141(7) + C142(9) + C143(8)
   + C144(4) + C145(7) + C146(10) + C147(5) + C148(10) + C149(6) + C150(10)
   + C151(9) + C152(5) + C153(7) + C154(5) + C155(7) + C156(11) + C157(9)
   + C158(12) + C159(8) + C160(8) + C161(12) + C162(9) + C163(9) + C164(9)
   + C165(6) + C166(6) = 1
 c45: C167(8) + C168(17) + C169(17) + C170(1) + C171(14) + C172(17)
   + C173(18) + C174(13) + C175(9) + C176(10) + C177(14) + C178(7)
   + C179(5) + C180(4) + C181(8) + C182(11) + C183(12) + C184(15)
   + C185(12) + C186(6) + C187(8) + C188(15) + C189(15) + C190(9)
   + C191(12) + C192(11) + C193(11) + C194(12) + C195(11) + C196(11)
   + C197(11) + C198(11) + C199(8) + C200(9) + C201(16) + C202(7) + C203(6)
   + C204(12) + C205(9) + C206(8) + C207(10) + C208(9) + C209(8) + C210(8)
   + C211(13) = 1
 c46: C212(5) + C213(16) + C214(16) + C215(1) + C216(14) + C217(15)
   + C218(14) + C219(18) + C220(11) + C221(11) + C222(10) + C223(7)
   + C224(9) + C225(6) + C226(5) + C227(5) + C228(7) + C229(11) + C230(2)
   + C231(6) + C232(9) + C233(7) + C234(2) + C235(11) + C236(3) + C237(9)
   + C238(10) + C239(9) + C240(5) + C241(5) + C242(10) + C243(7) + C244(6)
   + C245(2) + C246(5) + C247(4) + C248(7) + C249(10) + C250(4) + C251(5)
   + C252(7) + C253(7) = 1
 c47: C254(6) + C255(16) + C256(16) + C257(1) + C258(14) + C259(5)
   + C260(7) + C261(4) + C262(5) + C263(2) + C264(3) + C265(2) + C266(7)
   + C267(3) + C268(3) + C269(2) + C270(2) + C271(3) + C272(3) + C273(8)
   + C274(3) + C275(9) + C276(8) + C277(3) + C278(2) + C279(6) + C280(6)
   + C281(6) + C282(6) + C283(5) + C284(3) + C285(5) = 1
Bounds
End
